# Multiprotein complexes
#
#
units       real
dimension   3
boundary    p p p
atom_style  full

bond_style  harmonic
#pair_style  yukawa 0.1 0.0 35.0
dielectric  80.0

read_data     data.xyz

#--------  Input variables  ------#
variable T equal 300.0
variable csx equal 150 # Electrolyte solution ionic strength in mM
#---------------------------------

#-------  Derived variables ------#
variable cs equal (${csx}/1000)*6.022e26 # Electrolyte solution ionic strength in m^-3
variable er equal 5321/${T}+233.76-0.9297*${T}+0.001417*${T}*${T}-0.0000008292*${T}*${T}*${T} # Relative dielectric constant of the medium
variable bjerrum equal (1.671e-5)/(${er}*${T}) # Bjerrum length in meters
variable debyelen equal sqrt(1/(8*3.141592*${bjerrum}*${cs})) # Debye length in meters
variable debyelenang equal ${debyelen}*1e10 # Debye length in Angstrom
variable kappa equal 1/${debyelenang} # Inverse of debye length in Angstrom^-1 to go to pair style command
#----------------------------------

pair_style  hybrid/overlay wf/cut 25.0 yukawa ${kappa} 0.0 
bond_coeff          1     9.600     3.81 
#bond_coeff          2     9.600     5.0 
### Epsilon scaling
### Globular-globular 0.7; globular-IDP 0.7 and IDP-IDP 1
pair_coeff * * wf/cut 0.0 0.0 1 1 0.0
pair_coeff	1	1	wf/cut	0.07389	6.46795	1	4	19.40385
pair_coeff	1	2	wf/cut	0.12343	5.58153	1	3	16.74459
pair_coeff	1	3	wf/cut	0.07057	6.56965	1	4	19.70894
pair_coeff	1	4	wf/cut	0.06622	6.17851	1	4	18.53552
pair_coeff	1	5	wf/cut	0.28759	6.6535	1	3	19.9605
pair_coeff	1	6	wf/cut	0.08252	5.86901	1	4	17.60704
pair_coeff	1	7	wf/cut	0.12797	6.14574	1	3	18.43721
pair_coeff	1	8	wf/cut	0.13538	6.32281	1	3	18.96843
pair_coeff	1	9	wf/cut	0.37266	6.60079	1	3	19.80238
pair_coeff	1	10	wf/cut	0.0443	6.36698	1	5	19.10093
pair_coeff	1	11	wf/cut	0.04902	6.50101	1	4	19.50303
pair_coeff	1	12	wf/cut	0.21396	6.3729	1	3	19.1187
pair_coeff	1	13	wf/cut	0.4923	6.76725	1	3	20.30175
pair_coeff	1	14	wf/cut	0.35069	6.54875	1	3	19.64625
pair_coeff	1	15	wf/cut	0.09308	5.94031	1	4	17.82093
pair_coeff	1	16	wf/cut	0.35933	6.40287	1	3	19.2086
pair_coeff	1	17	wf/cut	0.20822	6.19565	1	3	18.58695
pair_coeff	1	18	wf/cut	0.10794	6.13705	1	4	18.41116
pair_coeff	1	19	wf/cut	0.09979	6.09616	1	4	18.28847
pair_coeff	1	20	wf/cut	0.03979	6.69482	1	5	20.08445
pair_coeff	1	21	wf/cut	0.05172	6.46795	1	4	19.40385
pair_coeff	1	22	wf/cut	0.0864	5.58153	1	3	16.74459
pair_coeff	1	23	wf/cut	0.0494	6.56965	1	4	19.70894
pair_coeff	1	24	wf/cut	0.04636	6.17851	1	4	18.53552
pair_coeff	1	25	wf/cut	0.20132	6.6535	1	3	19.9605
pair_coeff	1	26	wf/cut	0.05777	5.86901	1	4	17.60704
pair_coeff	1	27	wf/cut	0.08958	6.14574	1	3	18.43721
pair_coeff	1	28	wf/cut	0.09476	6.32281	1	3	18.96843
pair_coeff	1	29	wf/cut	0.27148	6.60079	1	3	19.80238
pair_coeff	1	30	wf/cut	0.03101	6.36698	1	5	19.10093
pair_coeff	1	31	wf/cut	0.03431	6.50101	1	4	19.50303
pair_coeff	1	32	wf/cut	0.14977	6.3729	1	3	19.1187
pair_coeff	1	33	wf/cut	0.35868	6.76725	1	3	20.30175
pair_coeff	1	34	wf/cut	0.25546	6.54875	1	3	19.64625
pair_coeff	1	35	wf/cut	0.06515	5.94031	1	4	17.82093
pair_coeff	1	36	wf/cut	0.25153	6.40287	1	3	19.2086
pair_coeff	1	37	wf/cut	0.14575	6.19565	1	3	18.58695
pair_coeff	1	38	wf/cut	0.07556	6.13705	1	4	18.41116
pair_coeff	1	39	wf/cut	0.06985	6.09616	1	4	18.28847
pair_coeff	1	40	wf/cut	0.02785	6.69482	1	5	20.08445
pair_coeff	2	2	wf/cut	0.17298	4.69511	1	3	14.08533
pair_coeff	2	3	wf/cut	0.12309	5.68323	1	4	17.04968
pair_coeff	2	4	wf/cut	0.11577	5.29209	1	3	15.87626
pair_coeff	2	5	wf/cut	0.33532	5.76708	1	3	17.30124
pair_coeff	2	6	wf/cut	0.13207	4.98259	1	3	14.94778
pair_coeff	2	7	wf/cut	0.17579	5.25932	1	3	15.77795
pair_coeff	2	8	wf/cut	0.1832	5.43639	1	3	16.30917
pair_coeff	2	9	wf/cut	0.41949	5.71437	1	3	17.14312
pair_coeff	2	10	wf/cut	0.09385	5.48055	1	4	16.44166
pair_coeff	2	11	wf/cut	0.09856	5.61459	1	4	16.84377
pair_coeff	2	12	wf/cut	0.26351	5.48648	1	3	16.45944
pair_coeff	2	13	wf/cut	0.53932	5.88083	1	3	17.64249
pair_coeff	2	14	wf/cut	0.39682	5.66233	1	3	16.98699
pair_coeff	2	15	wf/cut	0.14262	5.05389	1	3	15.16167
pair_coeff	2	16	wf/cut	0.40887	5.51645	1	3	16.54934
pair_coeff	2	17	wf/cut	0.25776	5.30923	1	3	15.92769
pair_coeff	2	18	wf/cut	0.15749	5.25063	1	3	15.7519
pair_coeff	2	19	wf/cut	0.14933	5.20974	1	3	15.62921
pair_coeff	2	20	wf/cut	0.08933	5.8084	1	4	17.42519
pair_coeff	2	21	wf/cut	0.0864	5.58153	1	3	16.74459
pair_coeff	2	22	wf/cut	0.12108	4.69511	1	3	14.08533
pair_coeff	2	23	wf/cut	0.08616	5.68323	1	4	17.04968
pair_coeff	2	24	wf/cut	0.08104	5.29209	1	3	15.87626
pair_coeff	2	25	wf/cut	0.23472	5.76708	1	3	17.30124
pair_coeff	2	26	wf/cut	0.09245	4.98259	1	3	14.94778
pair_coeff	2	27	wf/cut	0.12306	5.25932	1	3	15.77795
pair_coeff	2	28	wf/cut	0.12824	5.43639	1	3	16.30917
pair_coeff	2	29	wf/cut	0.3056	5.71437	1	3	17.14312
pair_coeff	2	30	wf/cut	0.06569	5.48055	1	4	16.44166
pair_coeff	2	31	wf/cut	0.069	5.61459	1	4	16.84377
pair_coeff	2	32	wf/cut	0.18445	5.48648	1	3	16.45944
pair_coeff	2	33	wf/cut	0.39295	5.88083	1	3	17.64249
pair_coeff	2	34	wf/cut	0.28908	5.66233	1	3	16.98699
pair_coeff	2	35	wf/cut	0.09983	5.05389	1	3	15.16167
pair_coeff	2	36	wf/cut	0.28621	5.51645	1	3	16.54934
pair_coeff	2	37	wf/cut	0.18043	5.30923	1	3	15.92769
pair_coeff	2	38	wf/cut	0.11024	5.25063	1	3	15.7519
pair_coeff	2	39	wf/cut	0.10453	5.20974	1	3	15.62921
pair_coeff	2	40	wf/cut	0.06253	5.8084	1	4	17.42519
pair_coeff	3	3	wf/cut	0.04553	6.67134	1	5	20.01402
pair_coeff	3	4	wf/cut	0.06744	6.2802	1	4	18.8406
pair_coeff	3	5	wf/cut	0.21671	6.7552	1	3	20.26559
pair_coeff	3	6	wf/cut	0.08472	5.97071	1	4	17.91212
pair_coeff	3	7	wf/cut	0.00088	6.24743	1	9	18.74229
pair_coeff	3	8	wf/cut	0.00094	6.42451	1	9	19.27352
pair_coeff	3	9	wf/cut	0.18415	6.70249	1	3	20.10746
pair_coeff	3	10	wf/cut	0.04421	6.46867	1	5	19.40601
pair_coeff	3	11	wf/cut	0.04921	6.60271	1	5	19.80812
pair_coeff	3	12	wf/cut	0.22405	6.4746	1	3	19.42379
pair_coeff	3	13	wf/cut	0.19838	6.86894	1	3	20.60683
pair_coeff	3	14	wf/cut	0.20609	6.65044	1	3	19.95133
pair_coeff	3	15	wf/cut	0.09591	6.04201	1	4	18.12602
pair_coeff	3	16	wf/cut	0.16626	6.50456	1	3	19.51368
pair_coeff	3	17	wf/cut	0.21795	6.29734	1	3	18.89203
pair_coeff	3	18	wf/cut	0.11167	6.23875	1	4	18.71624
pair_coeff	3	19	wf/cut	0.10302	6.19785	1	4	18.59355
pair_coeff	3	20	wf/cut	0.03942	6.79651	1	5	20.38953
pair_coeff	3	21	wf/cut	0.0529	6.56965	1	4	19.70894
pair_coeff	3	22	wf/cut	0.08966	5.68323	1	4	17.04968
pair_coeff	3	23	wf/cut	0.03187	6.67134	1	5	20.01402
pair_coeff	3	24	wf/cut	0.04721	6.2802	1	4	18.8406
pair_coeff	3	25	wf/cut	0.1517	6.7552	1	3	20.26559
pair_coeff	3	26	wf/cut	0.05931	5.97071	1	4	17.91212
pair_coeff	3	27	wf/cut	0.00061	6.24743	1	9	18.74229
pair_coeff	3	28	wf/cut	0.00066	6.42451	1	9	19.27352
pair_coeff	3	29	wf/cut	0.13408	6.70249	1	3	20.10746
pair_coeff	3	30	wf/cut	0.03094	6.46867	1	5	19.40601
pair_coeff	3	31	wf/cut	0.03445	6.60271	1	5	19.80812
pair_coeff	3	32	wf/cut	0.15683	6.4746	1	3	19.42379
pair_coeff	3	33	wf/cut	0.14445	6.86894	1	3	20.60683
pair_coeff	3	34	wf/cut	0.15007	6.65044	1	3	19.95133
pair_coeff	3	35	wf/cut	0.06714	6.04201	1	4	18.12602
pair_coeff	3	36	wf/cut	0.11638	6.50456	1	3	19.51368
pair_coeff	3	37	wf/cut	0.15257	6.29734	1	3	18.89203
pair_coeff	3	38	wf/cut	0.07817	6.23875	1	4	18.71624
pair_coeff	3	39	wf/cut	0.07212	6.19785	1	4	18.59355
pair_coeff	3	40	wf/cut	0.0276	6.79651	1	5	20.38953
pair_coeff	4	4	wf/cut	0.05856	5.88906	1	4	17.66718
pair_coeff	4	5	wf/cut	0.28021	6.36406	1	3	19.09217
pair_coeff	4	6	wf/cut	0.07486	5.57957	1	4	16.7387
pair_coeff	4	7	wf/cut	0.12057	5.85629	1	3	17.56887
pair_coeff	4	8	wf/cut	0.12798	6.03337	1	3	18.1001
pair_coeff	4	9	wf/cut	0.36542	6.31135	1	3	18.93404
pair_coeff	4	10	wf/cut	0.03664	6.07753	1	5	18.23259
pair_coeff	4	11	wf/cut	0.04135	6.21157	1	5	18.6347
pair_coeff	4	12	wf/cut	0.2063	6.08346	1	3	18.25037
pair_coeff	4	13	wf/cut	0.48503	6.4778	1	3	19.43341
pair_coeff	4	14	wf/cut	0.34275	6.25931	1	3	18.77792
pair_coeff	4	15	wf/cut	0.08541	5.65087	1	4	16.9526
pair_coeff	4	16	wf/cut	0.35166	6.11342	1	3	18.34027
pair_coeff	4	17	wf/cut	0.20055	5.90621	1	3	17.71862
pair_coeff	4	18	wf/cut	0.10028	5.84761	1	4	17.54283
pair_coeff	4	19	wf/cut	0.09212	5.80671	1	4	17.42014
pair_coeff	4	20	wf/cut	0.03212	6.40537	1	5	19.21611
pair_coeff	4	21	wf/cut	0.04636	6.17851	1	4	18.53552
pair_coeff	4	22	wf/cut	0.08104	5.29209	1	3	15.87626
pair_coeff	4	23	wf/cut	0.04371	6.2802	1	4	18.8406
pair_coeff	4	24	wf/cut	0.04099	5.88906	1	4	17.66718
pair_coeff	4	25	wf/cut	0.19615	6.36406	1	3	19.09217
pair_coeff	4	26	wf/cut	0.0524	5.57957	1	4	16.7387
pair_coeff	4	27	wf/cut	0.0844	5.85629	1	3	17.56887
pair_coeff	4	28	wf/cut	0.08958	6.03337	1	3	18.1001
pair_coeff	4	29	wf/cut	0.26619	6.31135	1	3	18.93404
pair_coeff	4	30	wf/cut	0.02564	6.07753	1	5	18.23259
pair_coeff	4	31	wf/cut	0.02895	6.21157	1	5	18.6347
pair_coeff	4	32	wf/cut	0.14441	6.08346	1	3	18.25037
pair_coeff	4	33	wf/cut	0.35338	6.4778	1	3	19.43341
pair_coeff	4	34	wf/cut	0.24967	6.25931	1	3	18.77792
pair_coeff	4	35	wf/cut	0.05979	5.65087	1	4	16.9526
pair_coeff	4	36	wf/cut	0.24617	6.11342	1	3	18.34027
pair_coeff	4	37	wf/cut	0.14038	5.90621	1	3	17.71862
pair_coeff	4	38	wf/cut	0.07019	5.84761	1	4	17.54283
pair_coeff	4	39	wf/cut	0.06449	5.80671	1	4	17.42014
pair_coeff	4	40	wf/cut	0.02249	6.40537	1	5	19.21611
pair_coeff	5	5	wf/cut	0.15073	6.83905	1	3	20.51715
pair_coeff	5	6	wf/cut	0.29591	6.05456	1	3	18.16369
pair_coeff	5	7	wf/cut	0.00674	6.33129	1	7	18.99386
pair_coeff	5	8	wf/cut	0.00686	6.50836	1	7	19.52508
pair_coeff	5	9	wf/cut	0.80421	6.78634	1	2	20.35903
pair_coeff	5	10	wf/cut	0.25909	6.55253	1	3	19.65758
pair_coeff	5	11	wf/cut	0.26364	6.68656	1	3	20.05969
pair_coeff	5	12	wf/cut	0.42252	6.55845	1	3	19.67535
pair_coeff	5	13	wf/cut	0.93408	6.9528	1	2	20.8584
pair_coeff	5	14	wf/cut	0.717	6.7343	1	2	20.2029
pair_coeff	5	15	wf/cut	0.30607	6.12586	1	3	18.37758
pair_coeff	5	16	wf/cut	0.20829	6.58842	1	3	19.76525
pair_coeff	5	17	wf/cut	0.41698	6.3812	1	3	19.1436
pair_coeff	5	18	wf/cut	0.32039	6.3226	1	3	18.96781
pair_coeff	5	19	wf/cut	0.31254	6.28171	1	3	18.84512
pair_coeff	5	20	wf/cut	0.25474	6.88037	1	3	20.6411
pair_coeff	5	21	wf/cut	0.20132	6.6535	1	3	19.9605
pair_coeff	5	22	wf/cut	0.23472	5.76708	1	3	17.30124
pair_coeff	5	23	wf/cut	0.1482	6.7552	1	3	20.26559
pair_coeff	5	24	wf/cut	0.19615	6.36406	1	3	19.09217
pair_coeff	5	25	wf/cut	0.10551	6.83905	1	3	20.51715
pair_coeff	5	26	wf/cut	0.20714	6.05456	1	3	18.16369
pair_coeff	5	27	wf/cut	0.00472	6.33129	1	7	18.99386
pair_coeff	5	28	wf/cut	0.0048	6.50836	1	7	19.52508
pair_coeff	5	29	wf/cut	0.58602	6.78634	1	2	20.35903
pair_coeff	5	30	wf/cut	0.18136	6.55253	1	3	19.65758
pair_coeff	5	31	wf/cut	0.18455	6.68656	1	3	20.05969
pair_coeff	5	32	wf/cut	0.29576	6.55845	1	3	19.67535
pair_coeff	5	33	wf/cut	0.68068	6.9528	1	2	20.8584
pair_coeff	5	34	wf/cut	0.52245	6.7343	1	2	20.2029
pair_coeff	5	35	wf/cut	0.21425	6.12586	1	3	18.37758
pair_coeff	5	36	wf/cut	0.14581	6.58842	1	3	19.76525
pair_coeff	5	37	wf/cut	0.29189	6.3812	1	3	19.1436
pair_coeff	5	38	wf/cut	0.22428	6.3226	1	3	18.96781
pair_coeff	5	39	wf/cut	0.21878	6.28171	1	3	18.84512
pair_coeff	5	40	wf/cut	0.17832	6.88037	1	3	20.6411
pair_coeff	6	6	wf/cut	0.09116	5.27007	1	4	15.81022
pair_coeff	6	7	wf/cut	0.13631	5.5468	1	3	16.64039
pair_coeff	6	8	wf/cut	0.14371	5.72387	1	3	17.17162
pair_coeff	6	9	wf/cut	0.38082	6.00185	1	3	18.00556
pair_coeff	6	10	wf/cut	0.05294	5.76804	1	4	17.30411
pair_coeff	6	11	wf/cut	0.05765	5.90207	1	4	17.70622
pair_coeff	6	12	wf/cut	0.22259	5.77396	1	3	17.32189
pair_coeff	6	13	wf/cut	0.5005	6.16831	1	3	18.50493
pair_coeff	6	14	wf/cut	0.35816	5.94981	1	3	17.84943
pair_coeff	6	15	wf/cut	0.10171	5.34137	1	4	16.02411
pair_coeff	6	16	wf/cut	0.36796	5.80393	1	3	17.41178
pair_coeff	6	17	wf/cut	0.21685	5.59671	1	3	16.79013
pair_coeff	6	18	wf/cut	0.11658	5.53811	1	3	16.61434
pair_coeff	6	19	wf/cut	0.10842	5.49722	1	4	16.49165
pair_coeff	6	20	wf/cut	0.04842	6.09588	1	4	18.28763
pair_coeff	6	21	wf/cut	0.05777	5.86901	1	4	17.60704
pair_coeff	6	22	wf/cut	0.09245	4.98259	1	3	14.94778
pair_coeff	6	23	wf/cut	0.05581	5.97071	1	4	17.91212
pair_coeff	6	24	wf/cut	0.0524	5.57957	1	4	16.7387
pair_coeff	6	25	wf/cut	0.20714	6.05456	1	3	18.16369
pair_coeff	6	26	wf/cut	0.06381	5.27007	1	4	15.81022
pair_coeff	6	27	wf/cut	0.09541	5.5468	1	3	16.64039
pair_coeff	6	28	wf/cut	0.1006	5.72387	1	3	17.17162
pair_coeff	6	29	wf/cut	0.27742	6.00185	1	3	18.00556
pair_coeff	6	30	wf/cut	0.03705	5.76804	1	4	17.30411
pair_coeff	6	31	wf/cut	0.04036	5.90207	1	4	17.70622
pair_coeff	6	32	wf/cut	0.15582	5.77396	1	3	17.32189
pair_coeff	6	33	wf/cut	0.36465	6.16831	1	3	18.50493
pair_coeff	6	34	wf/cut	0.2609	5.94981	1	3	17.84943
pair_coeff	6	35	wf/cut	0.0712	5.34137	1	4	16.02411
pair_coeff	6	36	wf/cut	0.25757	5.80393	1	3	17.41178
pair_coeff	6	37	wf/cut	0.1518	5.59671	1	3	16.79013
pair_coeff	6	38	wf/cut	0.0816	5.53811	1	3	16.61434
pair_coeff	6	39	wf/cut	0.0759	5.49722	1	4	16.49165
pair_coeff	6	40	wf/cut	0.0339	6.09588	1	4	18.28763
pair_coeff	7	7	wf/cut	0.13793	5.82352	1	3	17.47057
pair_coeff	7	8	wf/cut	0.14341	6.0006	1	3	18.00179
pair_coeff	7	9	wf/cut	0.41324	6.27858	1	3	18.83573
pair_coeff	7	10	wf/cut	0.09941	6.04476	1	4	18.13428
pair_coeff	7	11	wf/cut	0.10397	6.1788	1	4	18.53639
pair_coeff	7	12	wf/cut	0.26317	6.05069	1	3	18.15206
pair_coeff	7	13	wf/cut	0.52893	6.44503	1	3	19.3351
pair_coeff	7	14	wf/cut	0.39136	6.22654	1	3	18.67961
pair_coeff	7	15	wf/cut	0.14649	5.6181	1	3	16.85429
pair_coeff	7	16	wf/cut	0.00795	6.08065	1	7	18.24196
pair_coeff	7	17	wf/cut	0.25762	5.87344	1	3	17.62031
pair_coeff	7	18	wf/cut	0.16084	5.81484	1	3	17.44452
pair_coeff	7	19	wf/cut	0.15297	5.77394	1	3	17.32183
pair_coeff	7	20	wf/cut	0.09506	6.3726	1	4	19.1178
pair_coeff	7	21	wf/cut	0.08958	6.14574	1	3	18.43721
pair_coeff	7	22	wf/cut	0.12306	5.25932	1	3	15.77795
pair_coeff	7	23	wf/cut	0.00061	6.24743	1	9	18.74229
pair_coeff	7	24	wf/cut	0.0844	5.85629	1	3	17.56887
pair_coeff	7	25	wf/cut	0.00472	6.33129	1	7	18.99386
pair_coeff	7	26	wf/cut	0.09541	5.5468	1	3	16.64039
pair_coeff	7	27	wf/cut	0.09655	5.82352	1	3	17.47057
pair_coeff	7	28	wf/cut	0.10039	6.0006	1	3	18.00179
pair_coeff	7	29	wf/cut	0.30105	6.27858	1	3	18.83573
pair_coeff	7	30	wf/cut	0.06959	6.04476	1	4	18.13428
pair_coeff	7	31	wf/cut	0.07278	6.1788	1	4	18.53639
pair_coeff	7	32	wf/cut	0.18422	6.05069	1	3	18.15206
pair_coeff	7	33	wf/cut	0.38537	6.44503	1	3	19.3351
pair_coeff	7	34	wf/cut	0.28511	6.22654	1	3	18.67961
pair_coeff	7	35	wf/cut	0.10254	5.6181	1	3	16.85429
pair_coeff	7	36	wf/cut	0.00557	6.08065	1	7	18.24196
pair_coeff	7	37	wf/cut	0.18033	5.87344	1	3	17.62031
pair_coeff	7	38	wf/cut	0.11259	5.81484	1	3	17.44452
pair_coeff	7	39	wf/cut	0.10708	5.77394	1	3	17.32183
pair_coeff	7	40	wf/cut	0.06654	6.3726	1	4	19.1178
pair_coeff	8	8	wf/cut	0.1489	6.17767	1	3	18.53301
pair_coeff	8	9	wf/cut	0.42023	6.45565	1	3	19.36696
pair_coeff	8	10	wf/cut	0.10682	6.22183	1	4	18.6655
pair_coeff	8	11	wf/cut	0.11137	6.35587	1	4	19.06761
pair_coeff	8	12	wf/cut	0.27057	6.22776	1	3	18.68328
pair_coeff	8	13	wf/cut	0.53595	6.62211	1	3	19.86633
pair_coeff	8	14	wf/cut	0.39836	6.40361	1	3	19.21083
pair_coeff	8	15	wf/cut	0.15389	5.79517	1	3	17.38551
pair_coeff	8	16	wf/cut	0.00801	6.25773	1	7	18.77318
pair_coeff	8	17	wf/cut	0.26502	6.05051	1	3	18.15153
pair_coeff	8	18	wf/cut	0.16824	5.99191	1	3	17.97574
pair_coeff	8	19	wf/cut	0.16037	5.95102	1	3	17.85305
pair_coeff	8	20	wf/cut	0.10246	6.54968	1	4	19.64903
pair_coeff	8	21	wf/cut	0.09476	6.32281	1	3	18.96843
pair_coeff	8	22	wf/cut	0.12824	5.43639	1	3	16.30917
pair_coeff	8	23	wf/cut	0.00066	6.42451	1	9	19.27352
pair_coeff	8	24	wf/cut	0.08958	6.03337	1	3	18.1001
pair_coeff	8	25	wf/cut	0.0048	6.50836	1	7	19.52508
pair_coeff	8	26	wf/cut	0.1006	5.72387	1	3	17.17162
pair_coeff	8	27	wf/cut	0.10039	6.0006	1	3	18.00179
pair_coeff	8	28	wf/cut	0.10423	6.17767	1	3	18.53301
pair_coeff	8	29	wf/cut	0.30615	6.45565	1	3	19.36696
pair_coeff	8	30	wf/cut	0.07477	6.22183	1	4	18.6655
pair_coeff	8	31	wf/cut	0.07796	6.35587	1	4	19.06761
pair_coeff	8	32	wf/cut	0.1894	6.22776	1	3	18.68328
pair_coeff	8	33	wf/cut	0.39049	6.62211	1	3	19.86633
pair_coeff	8	34	wf/cut	0.29021	6.40361	1	3	19.21083
pair_coeff	8	35	wf/cut	0.10772	5.79517	1	3	17.38551
pair_coeff	8	36	wf/cut	0.00561	6.25773	1	7	18.77318
pair_coeff	8	37	wf/cut	0.18552	6.05051	1	3	18.15153
pair_coeff	8	38	wf/cut	0.11777	5.99191	1	3	17.97574
pair_coeff	8	39	wf/cut	0.11226	5.95102	1	3	17.85305
pair_coeff	8	40	wf/cut	0.07172	6.54968	1	4	19.64903
pair_coeff	9	9	wf/cut	0.64576	6.73363	1	2	20.2009
pair_coeff	9	10	wf/cut	0.34469	6.49982	1	3	19.49945
pair_coeff	9	11	wf/cut	0.34916	6.63385	1	3	19.90156
pair_coeff	9	12	wf/cut	0.50504	6.50574	1	3	19.51723
pair_coeff	9	13	wf/cut	0.79291	6.90009	1	2	20.70027
pair_coeff	9	14	wf/cut	0.6231	6.68159	1	2	20.04478
pair_coeff	9	15	wf/cut	0.39079	6.07315	1	3	18.21946
pair_coeff	9	16	wf/cut	0.64243	6.53571	1	2	19.60712
pair_coeff	9	17	wf/cut	0.49961	6.32849	1	3	18.98547
pair_coeff	9	18	wf/cut	0.40484	6.26989	1	3	18.80968
pair_coeff	9	19	wf/cut	0.39714	6.229	1	3	18.687
pair_coeff	9	20	wf/cut	0.34043	6.82766	1	3	20.48297
pair_coeff	9	21	wf/cut	0.26086	6.60079	1	3	19.80238
pair_coeff	9	22	wf/cut	0.29364	5.71437	1	3	17.14312
pair_coeff	9	23	wf/cut	0.12541	6.70249	1	3	20.10746
pair_coeff	9	24	wf/cut	0.25579	6.31135	1	3	18.93404
pair_coeff	9	25	wf/cut	0.56295	6.78634	1	2	20.35903
pair_coeff	9	26	wf/cut	0.26657	6.00185	1	3	18.00556
pair_coeff	9	27	wf/cut	0.28927	6.27858	1	3	18.83573
pair_coeff	9	28	wf/cut	0.29416	6.45565	1	3	19.36696
pair_coeff	9	29	wf/cut	0.45203	6.73363	1	2	20.2009
pair_coeff	9	30	wf/cut	0.24129	6.49982	1	3	19.49945
pair_coeff	9	31	wf/cut	0.24441	6.63385	1	3	19.90156
pair_coeff	9	32	wf/cut	0.35353	6.50574	1	3	19.51723
pair_coeff	9	33	wf/cut	0.55504	6.90009	1	2	20.70027
pair_coeff	9	34	wf/cut	0.43617	6.68159	1	2	20.04478
pair_coeff	9	35	wf/cut	0.27355	6.07315	1	3	18.21946
pair_coeff	9	36	wf/cut	0.4497	6.53571	1	2	19.60712
pair_coeff	9	37	wf/cut	0.34973	6.32849	1	3	18.98547
pair_coeff	9	38	wf/cut	0.28339	6.26989	1	3	18.80968
pair_coeff	9	39	wf/cut	0.278	6.229	1	3	18.687
pair_coeff	9	40	wf/cut	0.2383	6.82766	1	3	20.48297
pair_coeff	10	10	wf/cut	0.01471	6.266	1	6	18.798
pair_coeff	10	11	wf/cut	0.01943	6.40004	1	6	19.20011
pair_coeff	10	12	wf/cut	0.18437	6.27193	1	3	18.81578
pair_coeff	10	13	wf/cut	0.46423	6.66627	1	3	19.99882
pair_coeff	10	14	wf/cut	0.32203	6.44777	1	3	19.34332
pair_coeff	10	15	wf/cut	0.06349	5.83933	1	4	17.518
pair_coeff	10	16	wf/cut	0.32974	6.30189	1	3	18.90567
pair_coeff	10	17	wf/cut	0.17863	6.09467	1	3	18.28402
pair_coeff	10	18	wf/cut	0.07835	6.03608	1	4	18.10823
pair_coeff	10	19	wf/cut	0.0702	5.99518	1	4	17.98554
pair_coeff	10	20	wf/cut	0.0102	6.59384	1	7	19.78152
pair_coeff	10	21	wf/cut	0.03101	6.36698	1	5	19.10093
pair_coeff	10	22	wf/cut	0.06569	5.48055	1	4	16.44166
pair_coeff	10	23	wf/cut	0.02744	6.46867	1	5	19.40601
pair_coeff	10	24	wf/cut	0.02564	6.07753	1	5	18.23259
pair_coeff	10	25	wf/cut	0.18136	6.55253	1	3	19.65758
pair_coeff	10	26	wf/cut	0.03705	5.76804	1	4	17.30411
pair_coeff	10	27	wf/cut	0.06959	6.04476	1	4	18.13428
pair_coeff	10	28	wf/cut	0.07477	6.22183	1	4	18.6655
pair_coeff	10	29	wf/cut	0.25109	6.49982	1	3	19.49945
pair_coeff	10	30	wf/cut	0.0103	6.266	1	6	18.798
pair_coeff	10	31	wf/cut	0.0136	6.40004	1	6	19.20011
pair_coeff	10	32	wf/cut	0.12906	6.27193	1	3	18.81578
pair_coeff	10	33	wf/cut	0.33822	6.66627	1	3	19.99882
pair_coeff	10	34	wf/cut	0.23457	6.44777	1	3	19.34332
pair_coeff	10	35	wf/cut	0.04444	5.83933	1	4	17.518
pair_coeff	10	36	wf/cut	0.23082	6.30189	1	3	18.90567
pair_coeff	10	37	wf/cut	0.12504	6.09467	1	3	18.28402
pair_coeff	10	38	wf/cut	0.05485	6.03608	1	4	18.10823
pair_coeff	10	39	wf/cut	0.04914	5.99518	1	4	17.98554
pair_coeff	10	40	wf/cut	0.00714	6.59384	1	7	19.78152
pair_coeff	11	11	wf/cut	0.02415	6.53407	1	6	19.60222
pair_coeff	11	12	wf/cut	0.18909	6.40596	1	3	19.21788
pair_coeff	11	13	wf/cut	0.4687	6.80031	1	3	20.40093
pair_coeff	11	14	wf/cut	0.32649	6.58181	1	3	19.74543
pair_coeff	11	15	wf/cut	0.06821	5.97337	1	4	17.92011
pair_coeff	11	16	wf/cut	0.33446	6.43593	1	3	19.30778
pair_coeff	11	17	wf/cut	0.18334	6.22871	1	3	18.68613
pair_coeff	11	18	wf/cut	0.08307	6.17011	1	4	18.51034
pair_coeff	11	19	wf/cut	0.07492	6.12922	1	4	18.38765
pair_coeff	11	20	wf/cut	0.01492	6.72788	1	6	20.18363
pair_coeff	11	21	wf/cut	0.03431	6.50101	1	4	19.50303
pair_coeff	11	22	wf/cut	0.069	5.61459	1	4	16.84377
pair_coeff	11	23	wf/cut	0.03095	6.60271	1	5	19.80812
pair_coeff	11	24	wf/cut	0.02895	6.21157	1	5	18.6347
pair_coeff	11	25	wf/cut	0.18455	6.68656	1	3	20.05969
pair_coeff	11	26	wf/cut	0.04036	5.90207	1	4	17.70622
pair_coeff	11	27	wf/cut	0.07278	6.1788	1	4	18.53639
pair_coeff	11	28	wf/cut	0.07796	6.35587	1	4	19.06761
pair_coeff	11	29	wf/cut	0.25434	6.63385	1	3	19.90156
pair_coeff	11	30	wf/cut	0.0136	6.40004	1	6	19.20011
pair_coeff	11	31	wf/cut	0.01691	6.53407	1	6	19.60222
pair_coeff	11	32	wf/cut	0.13236	6.40596	1	3	19.21788
pair_coeff	11	33	wf/cut	0.34148	6.80031	1	3	20.40093
pair_coeff	11	34	wf/cut	0.23782	6.58181	1	3	19.74543
pair_coeff	11	35	wf/cut	0.04774	5.97337	1	4	17.92011
pair_coeff	11	36	wf/cut	0.23412	6.43593	1	3	19.30778
pair_coeff	11	37	wf/cut	0.12834	6.22871	1	3	18.68613
pair_coeff	11	38	wf/cut	0.05815	6.17011	1	4	18.51034
pair_coeff	11	39	wf/cut	0.05244	6.12922	1	4	18.38765
pair_coeff	11	40	wf/cut	0.01044	6.72788	1	6	20.18363
pair_coeff	12	12	wf/cut	0.35403	6.27785	1	3	18.83355
pair_coeff	12	13	wf/cut	0.62522	6.6722	1	2	20.0166
pair_coeff	12	14	wf/cut	0.48238	6.4537	1	3	19.3611
pair_coeff	12	15	wf/cut	0.23315	5.84526	1	3	17.53578
pair_coeff	12	16	wf/cut	0.4994	6.30782	1	3	18.92345
pair_coeff	12	17	wf/cut	0.34828	6.1006	1	3	18.3018
pair_coeff	12	18	wf/cut	0.24801	6.042	1	3	18.12601
pair_coeff	12	19	wf/cut	0.23986	6.00111	1	3	18.00332
pair_coeff	12	20	wf/cut	0.17986	6.59977	1	3	19.7993
pair_coeff	12	21	wf/cut	0.14977	6.3729	1	3	19.1187
pair_coeff	12	22	wf/cut	0.18445	5.48648	1	3	16.45944
pair_coeff	12	23	wf/cut	0.15333	6.4746	1	3	19.42379
pair_coeff	12	24	wf/cut	0.14441	6.08346	1	3	18.25037
pair_coeff	12	25	wf/cut	0.29576	6.55845	1	3	19.67535
pair_coeff	12	26	wf/cut	0.15582	5.77396	1	3	17.32189
pair_coeff	12	27	wf/cut	0.18422	6.05069	1	3	18.15206
pair_coeff	12	28	wf/cut	0.1894	6.22776	1	3	18.68328
pair_coeff	12	29	wf/cut	0.36796	6.50574	1	3	19.51723
pair_coeff	12	30	wf/cut	0.12906	6.27193	1	3	18.81578
pair_coeff	12	31	wf/cut	0.13236	6.40596	1	3	19.21788
pair_coeff	12	32	wf/cut	0.24782	6.27785	1	3	18.83355
pair_coeff	12	33	wf/cut	0.45555	6.6722	1	2	20.0166
pair_coeff	12	34	wf/cut	0.35144	6.4537	1	3	19.3611
pair_coeff	12	35	wf/cut	0.1632	5.84526	1	3	17.53578
pair_coeff	12	36	wf/cut	0.34958	6.30782	1	3	18.92345
pair_coeff	12	37	wf/cut	0.2438	6.1006	1	3	18.3018
pair_coeff	12	38	wf/cut	0.17361	6.042	1	3	18.12601
pair_coeff	12	39	wf/cut	0.1679	6.00111	1	3	18.00332
pair_coeff	12	40	wf/cut	0.1259	6.59977	1	3	19.7993
pair_coeff	13	13	wf/cut	0.80307	7.06655	1	2	21.19964
pair_coeff	13	14	wf/cut	0.77025	6.84805	1	2	20.54415
pair_coeff	13	15	wf/cut	0.51051	6.23961	1	3	18.71883
pair_coeff	13	16	wf/cut	0.76315	6.70217	1	2	20.1065
pair_coeff	13	17	wf/cut	0.61976	6.49495	1	2	19.48485
pair_coeff	13	18	wf/cut	0.52462	6.43635	1	3	19.30905
pair_coeff	13	19	wf/cut	0.51688	6.39546	1	3	19.18637
pair_coeff	13	20	wf/cut	0.45994	6.99411	1	3	20.98234
pair_coeff	13	21	wf/cut	0.34461	6.76725	1	3	20.30175
pair_coeff	13	22	wf/cut	0.37752	5.88083	1	3	17.64249
pair_coeff	13	23	wf/cut	0.13536	6.86894	1	3	20.60683
pair_coeff	13	24	wf/cut	0.33952	6.4778	1	3	19.43341
pair_coeff	13	25	wf/cut	0.65386	6.9528	1	2	20.8584
pair_coeff	13	26	wf/cut	0.35035	6.16831	1	3	18.50493
pair_coeff	13	27	wf/cut	0.37025	6.44503	1	3	19.3351
pair_coeff	13	28	wf/cut	0.37517	6.62211	1	3	19.86633
pair_coeff	13	29	wf/cut	0.55504	6.90009	1	2	20.70027
pair_coeff	13	30	wf/cut	0.32496	6.66627	1	3	19.99882
pair_coeff	13	31	wf/cut	0.32809	6.80031	1	3	20.40093
pair_coeff	13	32	wf/cut	0.43765	6.6722	1	2	20.0166
pair_coeff	13	33	wf/cut	0.56215	7.06655	1	2	21.19964
pair_coeff	13	34	wf/cut	0.53917	6.84805	1	2	20.54415
pair_coeff	13	35	wf/cut	0.35736	6.23961	1	3	18.71883
pair_coeff	13	36	wf/cut	0.53421	6.70217	1	2	20.1065
pair_coeff	13	37	wf/cut	0.43383	6.49495	1	2	19.48485
pair_coeff	13	38	wf/cut	0.36723	6.43635	1	3	19.30905
pair_coeff	13	39	wf/cut	0.36182	6.39546	1	3	19.18637
pair_coeff	13	40	wf/cut	0.32196	6.99411	1	3	20.98234
pair_coeff	14	14	wf/cut	0.60043	6.62955	1	2	19.88865
pair_coeff	14	15	wf/cut	0.36813	6.02111	1	3	18.06333
pair_coeff	14	16	wf/cut	0.61977	6.48367	1	2	19.451
pair_coeff	14	17	wf/cut	0.47695	6.27645	1	3	18.82935
pair_coeff	14	18	wf/cut	0.38218	6.21785	1	3	18.65356
pair_coeff	14	19	wf/cut	0.37447	6.17696	1	3	18.53087
pair_coeff	14	20	wf/cut	0.31777	6.77561	1	3	20.32684
pair_coeff	14	21	wf/cut	0.24548	6.54875	1	3	19.64625
pair_coeff	14	22	wf/cut	0.27777	5.66233	1	3	16.98699
pair_coeff	14	23	wf/cut	0.14076	6.65044	1	3	19.95133
pair_coeff	14	24	wf/cut	0.23993	6.25931	1	3	18.77792
pair_coeff	14	25	wf/cut	0.5019	6.7343	1	2	20.2029
pair_coeff	14	26	wf/cut	0.25071	5.94981	1	3	17.84943
pair_coeff	14	27	wf/cut	0.27395	6.22654	1	3	18.67961
pair_coeff	14	28	wf/cut	0.27885	6.40361	1	3	19.21083
pair_coeff	14	29	wf/cut	0.43617	6.68159	1	2	20.04478
pair_coeff	14	30	wf/cut	0.22542	6.44777	1	3	19.34332
pair_coeff	14	31	wf/cut	0.22854	6.58181	1	3	19.74543
pair_coeff	14	32	wf/cut	0.33766	6.4537	1	3	19.3611
pair_coeff	14	33	wf/cut	0.53917	6.84805	1	2	20.54415
pair_coeff	14	34	wf/cut	0.4203	6.62955	1	2	19.88865
pair_coeff	14	35	wf/cut	0.25769	6.02111	1	3	18.06333
pair_coeff	14	36	wf/cut	0.43384	6.48367	1	2	19.451
pair_coeff	14	37	wf/cut	0.33386	6.27645	1	3	18.82935
pair_coeff	14	38	wf/cut	0.26753	6.21785	1	3	18.65356
pair_coeff	14	39	wf/cut	0.26213	6.17696	1	3	18.53087
pair_coeff	14	40	wf/cut	0.22244	6.77561	1	3	20.32684
pair_coeff	15	15	wf/cut	0.11226	5.41267	1	4	16.23801
pair_coeff	15	16	wf/cut	0.37852	5.87523	1	3	17.62568
pair_coeff	15	17	wf/cut	0.2274	5.66801	1	3	17.00403
pair_coeff	15	18	wf/cut	0.12713	5.60941	1	3	16.82824
pair_coeff	15	19	wf/cut	0.11897	5.56852	1	3	16.70555
pair_coeff	15	20	wf/cut	0.05897	6.16717	1	4	18.50152
pair_coeff	15	21	wf/cut	0.06515	5.94031	1	4	17.82093
pair_coeff	15	22	wf/cut	0.09983	5.05389	1	3	15.16167
pair_coeff	15	23	wf/cut	0.06364	6.04201	1	4	18.12602
pair_coeff	15	24	wf/cut	0.05979	5.65087	1	4	16.9526
pair_coeff	15	25	wf/cut	0.21425	6.12586	1	3	18.37758
pair_coeff	15	26	wf/cut	0.0712	5.34137	1	4	16.02411
pair_coeff	15	27	wf/cut	0.10254	5.6181	1	3	16.85429
pair_coeff	15	28	wf/cut	0.10772	5.79517	1	3	17.38551
pair_coeff	15	29	wf/cut	0.28469	6.07315	1	3	18.21946
pair_coeff	15	30	wf/cut	0.04444	5.83933	1	4	17.518
pair_coeff	15	31	wf/cut	0.04774	5.97337	1	4	17.92011
pair_coeff	15	32	wf/cut	0.1632	5.84526	1	3	17.53578
pair_coeff	15	33	wf/cut	0.37195	6.23961	1	3	18.71883
pair_coeff	15	34	wf/cut	0.26817	6.02111	1	3	18.06333
pair_coeff	15	35	wf/cut	0.07858	5.41267	1	4	16.23801
pair_coeff	15	36	wf/cut	0.26496	5.87523	1	3	17.62568
pair_coeff	15	37	wf/cut	0.15918	5.66801	1	3	17.00403
pair_coeff	15	38	wf/cut	0.08899	5.60941	1	3	16.82824
pair_coeff	15	39	wf/cut	0.08328	5.56852	1	3	16.70555
pair_coeff	15	40	wf/cut	0.04128	6.16717	1	4	18.50152
pair_coeff	16	16	wf/cut	0.05239	6.33778	1	4	19.01335
pair_coeff	16	17	wf/cut	0.49365	6.13057	1	3	18.3917
pair_coeff	16	18	wf/cut	0.39338	6.07197	1	3	18.21591
pair_coeff	16	19	wf/cut	0.38523	6.03107	1	3	18.09322
pair_coeff	16	20	wf/cut	0.32523	6.62973	1	3	19.88919
pair_coeff	16	21	wf/cut	0.25153	6.40287	1	3	19.2086
pair_coeff	16	22	wf/cut	0.28621	5.51645	1	3	16.54934
pair_coeff	16	23	wf/cut	0.11288	6.50456	1	3	19.51368
pair_coeff	16	24	wf/cut	0.24617	6.11342	1	3	18.34027
pair_coeff	16	25	wf/cut	0.14581	6.58842	1	3	19.76525
pair_coeff	16	26	wf/cut	0.25757	5.80393	1	3	17.41178
pair_coeff	16	27	wf/cut	0.00557	6.08065	1	7	18.24196
pair_coeff	16	28	wf/cut	0.00561	6.25773	1	7	18.77318
pair_coeff	16	29	wf/cut	0.4681	6.53571	1	2	19.60712
pair_coeff	16	30	wf/cut	0.23082	6.30189	1	3	18.90567
pair_coeff	16	31	wf/cut	0.23412	6.43593	1	3	19.30778
pair_coeff	16	32	wf/cut	0.34958	6.30782	1	3	18.92345
pair_coeff	16	33	wf/cut	0.55609	6.70217	1	2	20.1065
pair_coeff	16	34	wf/cut	0.45158	6.48367	1	2	19.451
pair_coeff	16	35	wf/cut	0.26496	5.87523	1	3	17.62568
pair_coeff	16	36	wf/cut	0.03667	6.33778	1	4	19.01335
pair_coeff	16	37	wf/cut	0.34556	6.13057	1	3	18.3917
pair_coeff	16	38	wf/cut	0.27537	6.07197	1	3	18.21591
pair_coeff	16	39	wf/cut	0.26966	6.03107	1	3	18.09322
pair_coeff	16	40	wf/cut	0.22766	6.62973	1	3	19.88919
pair_coeff	17	17	wf/cut	0.34254	5.92335	1	3	17.77005
pair_coeff	17	18	wf/cut	0.24227	5.86475	1	3	17.59426
pair_coeff	17	19	wf/cut	0.23412	5.82386	1	3	17.47157
pair_coeff	17	20	wf/cut	0.17411	6.42251	1	3	19.26754
pair_coeff	17	21	wf/cut	0.14575	6.19565	1	3	18.58695
pair_coeff	17	22	wf/cut	0.18043	5.30923	1	3	15.92769
pair_coeff	17	23	wf/cut	0.14907	6.29734	1	3	18.89203
pair_coeff	17	24	wf/cut	0.14038	5.90621	1	3	17.71862
pair_coeff	17	25	wf/cut	0.29189	6.3812	1	3	19.1436
pair_coeff	17	26	wf/cut	0.1518	5.59671	1	3	16.79013
pair_coeff	17	27	wf/cut	0.18033	5.87344	1	3	17.62031
pair_coeff	17	28	wf/cut	0.18552	6.05051	1	3	18.15153
pair_coeff	17	29	wf/cut	0.36401	6.32849	1	3	18.98547
pair_coeff	17	30	wf/cut	0.12504	6.09467	1	3	18.28402
pair_coeff	17	31	wf/cut	0.12834	6.22871	1	3	18.68613
pair_coeff	17	32	wf/cut	0.2438	6.1006	1	3	18.3018
pair_coeff	17	33	wf/cut	0.45158	6.49495	1	2	19.48485
pair_coeff	17	34	wf/cut	0.34749	6.27645	1	3	18.82935
pair_coeff	17	35	wf/cut	0.15918	5.66801	1	3	17.00403
pair_coeff	17	36	wf/cut	0.34556	6.13057	1	3	18.3917
pair_coeff	17	37	wf/cut	0.23978	5.92335	1	3	17.77005
pair_coeff	17	38	wf/cut	0.16959	5.86475	1	3	17.59426
pair_coeff	17	39	wf/cut	0.16388	5.82386	1	3	17.47157
pair_coeff	17	40	wf/cut	0.12188	6.42251	1	3	19.26754
pair_coeff	18	18	wf/cut	0.142	5.80616	1	3	17.41847
pair_coeff	18	19	wf/cut	0.13384	5.76526	1	3	17.29578
pair_coeff	18	20	wf/cut	0.07384	6.36392	1	4	19.09175
pair_coeff	18	21	wf/cut	0.07556	6.13705	1	4	18.41116
pair_coeff	18	22	wf/cut	0.11024	5.25063	1	3	15.7519
pair_coeff	18	23	wf/cut	0.07467	6.23875	1	4	18.71624
pair_coeff	18	24	wf/cut	0.07019	5.84761	1	4	17.54283
pair_coeff	18	25	wf/cut	0.22428	6.3226	1	3	18.96781
pair_coeff	18	26	wf/cut	0.0816	5.53811	1	3	16.61434